721403
721403
721403
721403
713408
712176
712176
707290
707290
707290
707290
704568
703162
703162
682918
682168
682168
682168
682168
682168
673741
673741
671235
663035
663035
663035
663035
663035
663035
662854
659045
659045
658595
658595
654509
654509
654509
648609
648609
635423
635423
635423
632016
627123
627123
627123
627123
627123
618751
618751
618751
618751
617709
610022
610022
610022
602186
602186
602186
602186
602186
602186
602186
601472
600762
600762
600762
600174
599856
586040
586040
582473
582473
582473
570182
570182
570182
570182
570182
570182
570182
570182
570182
570182
570182
570182
570182
570182
570182
570182
569836
569836
569836
568656
568656
568656
568496
568496
563932
563932
